(set-info :smt-lib-version 2.6)
(set-logic QF_NIA)
(set-info :source |
Generated by: Cristina Borralleras, Daniel Larraz, Albert Oliveras, Enric Rodriguez-Carbonell, Albert Rubio
Generated on: 2017-04-27
Generator: VeryMax
Application: Termination proving
Target solver: barcelogic
|)
(set-info :license "https://creativecommons.org/licenses/by/4.0/")
(set-info :category "industrial")
(set-info :status sat)
(declare-fun Nl3low6^01 () Int)
(declare-fun Nl3up5^01 () Int)
(declare-fun Nl3low6^02 () Int)
(declare-fun Nl3up5^02 () Int)
(declare-fun Nl3low6^03 () Int)
(declare-fun Nl3up5^03 () Int)
(declare-fun lam0n0 () Int)
(declare-fun lam0n1 () Int)
(declare-fun lam0n2 () Int)
(declare-fun lam0n3 () Int)
(declare-fun lam0n4 () Int)
(declare-fun UndefCntr0_CT () Int)
(declare-fun Nl3CT1 () Int)
(declare-fun Nl3CT2 () Int)
(declare-fun Nl3CT3 () Int)
(declare-fun UndefCntr0_low6^0 () Int)
(declare-fun UndefCntr0_up5^0 () Int)
(declare-fun UndefCntr0_undef31 () Int)
(declare-fun lam1n0 () Int)
(declare-fun lam1n1 () Int)
(declare-fun lam1n2 () Int)
(declare-fun lam1n3 () Int)
(declare-fun lam1n4 () Int)
(declare-fun lam2n0 () Int)
(declare-fun lam2n1 () Int)
(declare-fun lam2n2 () Int)
(declare-fun lam2n3 () Int)
(declare-fun lam2n4 () Int)
(declare-fun lam3n0 () Int)
(declare-fun lam3n1 () Int)
(declare-fun lam3n2 () Int)
(declare-fun lam3n3 () Int)
(declare-fun lam3n4 () Int)
(declare-fun lam4n0 () Int)
(declare-fun lam4n1 () Int)
(declare-fun lam4n2 () Int)
(declare-fun lam4n3 () Int)
(declare-fun lam4n4 () Int)
(declare-fun UndefCntr1_CT () Int)
(declare-fun UndefCntr1_low6^0 () Int)
(declare-fun UndefCntr1_up5^0 () Int)
(declare-fun UndefCntr1_undef31 () Int)
(declare-fun lam5n0 () Int)
(declare-fun lam5n1 () Int)
(declare-fun lam5n2 () Int)
(declare-fun lam5n3 () Int)
(declare-fun lam5n4 () Int)
(declare-fun lam6n0 () Int)
(declare-fun lam6n1 () Int)
(declare-fun lam6n2 () Int)
(declare-fun lam6n3 () Int)
(declare-fun lam6n4 () Int)
(declare-fun lam7n0 () Int)
(declare-fun lam7n1 () Int)
(declare-fun lam7n2 () Int)
(declare-fun lam7n3 () Int)
(declare-fun lam7n4 () Int)
(declare-fun lam8n0 () Int)
(declare-fun lam8n1 () Int)
(declare-fun lam8n2 () Int)
(declare-fun lam8n3 () Int)
(declare-fun lam8n4 () Int)
(declare-fun UndefCntr2_CT () Int)
(declare-fun UndefCntr2_low6^0 () Int)
(declare-fun UndefCntr2_up5^0 () Int)
(declare-fun UndefCntr2_undef31 () Int)
(declare-fun lam9n0 () Int)
(declare-fun lam9n1 () Int)
(declare-fun lam9n2 () Int)
(declare-fun lam9n3 () Int)
(declare-fun lam9n4 () Int)
(declare-fun lam10n0 () Int)
(declare-fun lam10n1 () Int)
(declare-fun lam10n2 () Int)
(declare-fun lam10n3 () Int)
(declare-fun lam10n4 () Int)
(declare-fun lam11n0 () Int)
(declare-fun lam11n1 () Int)
(declare-fun lam11n2 () Int)
(declare-fun lam11n3 () Int)
(declare-fun lam11n4 () Int)
(declare-fun lam12n0 () Int)
(declare-fun lam12n1 () Int)
(declare-fun lam12n2 () Int)
(declare-fun lam12n3 () Int)
(declare-fun lam12n4 () Int)
(declare-fun UndefCntr3_CT () Int)
(declare-fun UndefCntr3_low6^0 () Int)
(declare-fun UndefCntr3_up5^0 () Int)
(declare-fun UndefCntr3_undef31 () Int)
(declare-fun lam13n0 () Int)
(declare-fun lam13n1 () Int)
(declare-fun lam13n2 () Int)
(declare-fun lam13n3 () Int)
(declare-fun lam13n4 () Int)
(declare-fun lam14n0 () Int)
(declare-fun lam14n1 () Int)
(declare-fun lam14n2 () Int)
(declare-fun lam14n3 () Int)
(declare-fun lam14n4 () Int)
(declare-fun lam15n0 () Int)
(declare-fun lam15n1 () Int)
(declare-fun lam15n2 () Int)
(declare-fun lam15n3 () Int)
(declare-fun lam15n4 () Int)
(declare-fun lam16n0 () Int)
(declare-fun lam16n2 () Int)
(declare-fun lam16n1 () Int)
(declare-fun lam17n0 () Int)
(declare-fun lam17n2 () Int)
(declare-fun lam17n1 () Int)
(declare-fun lam18n0 () Int)
(declare-fun lam18n2 () Int)
(declare-fun lam18n1 () Int)
(declare-fun fvalue3^0 () Int)
(declare-fun low6^0 () Int)
(declare-fun up5^0 () Int)
(declare-fun FV_low6^0_4 () Int)
(declare-fun FV_up5^0_4 () Int)
(declare-fun lam19n0 () Int)
(declare-fun lam19n1 () Int)
(declare-fun lam19n2 () Int)
(declare-fun lam19n3 () Int)
(declare-fun FV_low6^0_5 () Int)
(declare-fun FV_up5^0_5 () Int)
(assert ( and ( <= ( - 1 ) Nl3low6^01 ) ( <= Nl3low6^01 1 ) ( <= ( - 1 ) Nl3up5^01 ) ( <= Nl3up5^01 1 ) ( <= ( - 1 ) Nl3low6^02 ) ( <= Nl3low6^02 1 ) ( <= ( - 1 ) Nl3up5^02 ) ( <= Nl3up5^02 1 ) ( <= ( - 1 ) Nl3low6^03 ) ( <= Nl3low6^03 1 ) ( <= ( - 1 ) Nl3up5^03 ) ( <= Nl3up5^03 1 ) ))
(assert ( or ( and ( >= lam0n0 0 ) ( >= lam0n1 0 ) ( >= lam0n2 0 ) ( >= lam0n3 0 ) ( >= lam0n4 0 ) ( > ( + ( * UndefCntr0_CT lam0n1 ) ( * Nl3CT1 lam0n2 ) ( * Nl3CT2 lam0n3 ) ( * Nl3CT3 lam0n4 ) ( - 1 ) ) 0 ) ( = ( + ( * 1 lam0n0 ) ( * UndefCntr0_low6^0 lam0n1 ) ( * Nl3low6^01 lam0n2 ) ( * Nl3low6^02 lam0n3 ) ( * Nl3low6^03 lam0n4 ) ) 0 ) ( = ( + ( * ( - 1 ) lam0n0 ) ( * UndefCntr0_up5^0 lam0n1 ) ( * Nl3up5^01 lam0n2 ) ( * Nl3up5^02 lam0n3 ) ( * Nl3up5^03 lam0n4 ) ) 0 ) ( = ( * UndefCntr0_undef31 lam0n1 ) 0 ) ) ( and ( >= lam1n0 0 ) ( >= lam1n1 0 ) ( >= lam1n2 0 ) ( >= lam1n3 0 ) ( >= lam1n4 0 ) ( > ( + ( * UndefCntr0_CT lam1n1 ) ( * Nl3CT1 lam1n2 ) ( * Nl3CT2 lam1n3 ) ( * Nl3CT3 lam1n4 ) ( - 1 ( + Nl3CT1 ( * Nl3low6^01 1 ) ) ) ) 0 ) ( = ( + ( * 1 lam1n0 ) ( * UndefCntr0_low6^0 lam1n1 ) ( * Nl3low6^01 lam1n2 ) ( * Nl3low6^02 lam1n3 ) ( * Nl3low6^03 lam1n4 ) ) 0 ) ( = ( + ( * ( - 1 ) lam1n0 ) ( * UndefCntr0_up5^0 lam1n1 ) ( * Nl3up5^01 lam1n2 ) ( * Nl3up5^02 lam1n3 ) ( * Nl3up5^03 lam1n4 ) ( - ( + 0 Nl3up5^01 ) ) ) 0 ) ( = ( + ( * UndefCntr0_undef31 lam1n1 ) ( - ( + 0 ( * Nl3low6^01 1 ) ) ) ) 0 ) ) ))
(assert ( or ( and ( >= lam0n0 0 ) ( >= lam0n1 0 ) ( >= lam0n2 0 ) ( >= lam0n3 0 ) ( >= lam0n4 0 ) ( > ( + ( * UndefCntr0_CT lam0n1 ) ( * Nl3CT1 lam0n2 ) ( * Nl3CT2 lam0n3 ) ( * Nl3CT3 lam0n4 ) ( - 1 ) ) 0 ) ( = ( + ( * 1 lam0n0 ) ( * UndefCntr0_low6^0 lam0n1 ) ( * Nl3low6^01 lam0n2 ) ( * Nl3low6^02 lam0n3 ) ( * Nl3low6^03 lam0n4 ) ) 0 ) ( = ( + ( * ( - 1 ) lam0n0 ) ( * UndefCntr0_up5^0 lam0n1 ) ( * Nl3up5^01 lam0n2 ) ( * Nl3up5^02 lam0n3 ) ( * Nl3up5^03 lam0n4 ) ) 0 ) ( = ( * UndefCntr0_undef31 lam0n1 ) 0 ) ) ( and ( >= lam2n0 0 ) ( >= lam2n1 0 ) ( >= lam2n2 0 ) ( >= lam2n3 0 ) ( >= lam2n4 0 ) ( > ( + ( * UndefCntr0_CT lam2n1 ) ( * Nl3CT1 lam2n2 ) ( * Nl3CT2 lam2n3 ) ( * Nl3CT3 lam2n4 ) ( - 1 ( + Nl3CT2 ( * Nl3low6^02 1 ) ) ) ) 0 ) ( = ( + ( * 1 lam2n0 ) ( * UndefCntr0_low6^0 lam2n1 ) ( * Nl3low6^01 lam2n2 ) ( * Nl3low6^02 lam2n3 ) ( * Nl3low6^03 lam2n4 ) ) 0 ) ( = ( + ( * ( - 1 ) lam2n0 ) ( * UndefCntr0_up5^0 lam2n1 ) ( * Nl3up5^01 lam2n2 ) ( * Nl3up5^02 lam2n3 ) ( * Nl3up5^03 lam2n4 ) ( - ( + 0 Nl3up5^02 ) ) ) 0 ) ( = ( + ( * UndefCntr0_undef31 lam2n1 ) ( - ( + 0 ( * Nl3low6^02 1 ) ) ) ) 0 ) ) ))
(assert ( or ( and ( >= lam0n0 0 ) ( >= lam0n1 0 ) ( >= lam0n2 0 ) ( >= lam0n3 0 ) ( >= lam0n4 0 ) ( > ( + ( * UndefCntr0_CT lam0n1 ) ( * Nl3CT1 lam0n2 ) ( * Nl3CT2 lam0n3 ) ( * Nl3CT3 lam0n4 ) ( - 1 ) ) 0 ) ( = ( + ( * 1 lam0n0 ) ( * UndefCntr0_low6^0 lam0n1 ) ( * Nl3low6^01 lam0n2 ) ( * Nl3low6^02 lam0n3 ) ( * Nl3low6^03 lam0n4 ) ) 0 ) ( = ( + ( * ( - 1 ) lam0n0 ) ( * UndefCntr0_up5^0 lam0n1 ) ( * Nl3up5^01 lam0n2 ) ( * Nl3up5^02 lam0n3 ) ( * Nl3up5^03 lam0n4 ) ) 0 ) ( = ( * UndefCntr0_undef31 lam0n1 ) 0 ) ) ( and ( >= lam3n0 0 ) ( >= lam3n1 0 ) ( >= lam3n2 0 ) ( >= lam3n3 0 ) ( >= lam3n4 0 ) ( > ( + ( * UndefCntr0_CT lam3n1 ) ( * Nl3CT1 lam3n2 ) ( * Nl3CT2 lam3n3 ) ( * Nl3CT3 lam3n4 ) ( - 1 ( + Nl3CT3 ( * Nl3low6^03 1 ) ) ) ) 0 ) ( = ( + ( * 1 lam3n0 ) ( * UndefCntr0_low6^0 lam3n1 ) ( * Nl3low6^01 lam3n2 ) ( * Nl3low6^02 lam3n3 ) ( * Nl3low6^03 lam3n4 ) ) 0 ) ( = ( + ( * ( - 1 ) lam3n0 ) ( * UndefCntr0_up5^0 lam3n1 ) ( * Nl3up5^01 lam3n2 ) ( * Nl3up5^02 lam3n3 ) ( * Nl3up5^03 lam3n4 ) ( - ( + 0 Nl3up5^03 ) ) ) 0 ) ( = ( + ( * UndefCntr0_undef31 lam3n1 ) ( - ( + 0 ( * Nl3low6^03 1 ) ) ) ) 0 ) ) ))
(assert ( or ( and ( >= lam4n0 0 ) ( >= lam4n1 0 ) ( >= lam4n2 0 ) ( >= lam4n3 0 ) ( >= lam4n4 0 ) ( > ( + ( * UndefCntr1_CT lam4n1 ) ( * Nl3CT1 lam4n2 ) ( * Nl3CT2 lam4n3 ) ( * Nl3CT3 lam4n4 ) ( - 1 ) ) 0 ) ( = ( + ( * 1 lam4n0 ) ( * UndefCntr1_low6^0 lam4n1 ) ( * Nl3low6^01 lam4n2 ) ( * Nl3low6^02 lam4n3 ) ( * Nl3low6^03 lam4n4 ) ) 0 ) ( = ( + ( * ( - 1 ) lam4n0 ) ( * UndefCntr1_up5^0 lam4n1 ) ( * Nl3up5^01 lam4n2 ) ( * Nl3up5^02 lam4n3 ) ( * Nl3up5^03 lam4n4 ) ) 0 ) ( = ( * UndefCntr1_undef31 lam4n1 ) 0 ) ) ( and ( >= lam5n0 0 ) ( >= lam5n1 0 ) ( >= lam5n2 0 ) ( >= lam5n3 0 ) ( >= lam5n4 0 ) ( > ( + ( * UndefCntr1_CT lam5n1 ) ( * Nl3CT1 lam5n2 ) ( * Nl3CT2 lam5n3 ) ( * Nl3CT3 lam5n4 ) ( - 1 ( + Nl3CT1 ( * Nl3up5^01 ( - 1 ) ) ) ) ) 0 ) ( = ( + ( * 1 lam5n0 ) ( * UndefCntr1_low6^0 lam5n1 ) ( * Nl3low6^01 lam5n2 ) ( * Nl3low6^02 lam5n3 ) ( * Nl3low6^03 lam5n4 ) ( - ( + 0 Nl3low6^01 ) ) ) 0 ) ( = ( + ( * ( - 1 ) lam5n0 ) ( * UndefCntr1_up5^0 lam5n1 ) ( * Nl3up5^01 lam5n2 ) ( * Nl3up5^02 lam5n3 ) ( * Nl3up5^03 lam5n4 ) ) 0 ) ( = ( + ( * UndefCntr1_undef31 lam5n1 ) ( - ( + 0 ( * Nl3up5^01 1 ) ) ) ) 0 ) ) ))
(assert ( or ( and ( >= lam4n0 0 ) ( >= lam4n1 0 ) ( >= lam4n2 0 ) ( >= lam4n3 0 ) ( >= lam4n4 0 ) ( > ( + ( * UndefCntr1_CT lam4n1 ) ( * Nl3CT1 lam4n2 ) ( * Nl3CT2 lam4n3 ) ( * Nl3CT3 lam4n4 ) ( - 1 ) ) 0 ) ( = ( + ( * 1 lam4n0 ) ( * UndefCntr1_low6^0 lam4n1 ) ( * Nl3low6^01 lam4n2 ) ( * Nl3low6^02 lam4n3 ) ( * Nl3low6^03 lam4n4 ) ) 0 ) ( = ( + ( * ( - 1 ) lam4n0 ) ( * UndefCntr1_up5^0 lam4n1 ) ( * Nl3up5^01 lam4n2 ) ( * Nl3up5^02 lam4n3 ) ( * Nl3up5^03 lam4n4 ) ) 0 ) ( = ( * UndefCntr1_undef31 lam4n1 ) 0 ) ) ( and ( >= lam6n0 0 ) ( >= lam6n1 0 ) ( >= lam6n2 0 ) ( >= lam6n3 0 ) ( >= lam6n4 0 ) ( > ( + ( * UndefCntr1_CT lam6n1 ) ( * Nl3CT1 lam6n2 ) ( * Nl3CT2 lam6n3 ) ( * Nl3CT3 lam6n4 ) ( - 1 ( + Nl3CT2 ( * Nl3up5^02 ( - 1 ) ) ) ) ) 0 ) ( = ( + ( * 1 lam6n0 ) ( * UndefCntr1_low6^0 lam6n1 ) ( * Nl3low6^01 lam6n2 ) ( * Nl3low6^02 lam6n3 ) ( * Nl3low6^03 lam6n4 ) ( - ( + 0 Nl3low6^02 ) ) ) 0 ) ( = ( + ( * ( - 1 ) lam6n0 ) ( * UndefCntr1_up5^0 lam6n1 ) ( * Nl3up5^01 lam6n2 ) ( * Nl3up5^02 lam6n3 ) ( * Nl3up5^03 lam6n4 ) ) 0 ) ( = ( + ( * UndefCntr1_undef31 lam6n1 ) ( - ( + 0 ( * Nl3up5^02 1 ) ) ) ) 0 ) ) ))
(assert ( or ( and ( >= lam4n0 0 ) ( >= lam4n1 0 ) ( >= lam4n2 0 ) ( >= lam4n3 0 ) ( >= lam4n4 0 ) ( > ( + ( * UndefCntr1_CT lam4n1 ) ( * Nl3CT1 lam4n2 ) ( * Nl3CT2 lam4n3 ) ( * Nl3CT3 lam4n4 ) ( - 1 ) ) 0 ) ( = ( + ( * 1 lam4n0 ) ( * UndefCntr1_low6^0 lam4n1 ) ( * Nl3low6^01 lam4n2 ) ( * Nl3low6^02 lam4n3 ) ( * Nl3low6^03 lam4n4 ) ) 0 ) ( = ( + ( * ( - 1 ) lam4n0 ) ( * UndefCntr1_up5^0 lam4n1 ) ( * Nl3up5^01 lam4n2 ) ( * Nl3up5^02 lam4n3 ) ( * Nl3up5^03 lam4n4 ) ) 0 ) ( = ( * UndefCntr1_undef31 lam4n1 ) 0 ) ) ( and ( >= lam7n0 0 ) ( >= lam7n1 0 ) ( >= lam7n2 0 ) ( >= lam7n3 0 ) ( >= lam7n4 0 ) ( > ( + ( * UndefCntr1_CT lam7n1 ) ( * Nl3CT1 lam7n2 ) ( * Nl3CT2 lam7n3 ) ( * Nl3CT3 lam7n4 ) ( - 1 ( + Nl3CT3 ( * Nl3up5^03 ( - 1 ) ) ) ) ) 0 ) ( = ( + ( * 1 lam7n0 ) ( * UndefCntr1_low6^0 lam7n1 ) ( * Nl3low6^01 lam7n2 ) ( * Nl3low6^02 lam7n3 ) ( * Nl3low6^03 lam7n4 ) ( - ( + 0 Nl3low6^03 ) ) ) 0 ) ( = ( + ( * ( - 1 ) lam7n0 ) ( * UndefCntr1_up5^0 lam7n1 ) ( * Nl3up5^01 lam7n2 ) ( * Nl3up5^02 lam7n3 ) ( * Nl3up5^03 lam7n4 ) ) 0 ) ( = ( + ( * UndefCntr1_undef31 lam7n1 ) ( - ( + 0 ( * Nl3up5^03 1 ) ) ) ) 0 ) ) ))
(assert ( or ( and ( >= lam8n0 0 ) ( >= lam8n1 0 ) ( >= lam8n2 0 ) ( >= lam8n3 0 ) ( >= lam8n4 0 ) ( > ( + ( * UndefCntr2_CT lam8n1 ) ( * Nl3CT1 lam8n2 ) ( * Nl3CT2 lam8n3 ) ( * Nl3CT3 lam8n4 ) ( - 1 ) ) 0 ) ( = ( + ( * 1 lam8n0 ) ( * UndefCntr2_low6^0 lam8n1 ) ( * Nl3low6^01 lam8n2 ) ( * Nl3low6^02 lam8n3 ) ( * Nl3low6^03 lam8n4 ) ) 0 ) ( = ( + ( * ( - 1 ) lam8n0 ) ( * UndefCntr2_up5^0 lam8n1 ) ( * Nl3up5^01 lam8n2 ) ( * Nl3up5^02 lam8n3 ) ( * Nl3up5^03 lam8n4 ) ) 0 ) ( = ( * UndefCntr2_undef31 lam8n1 ) 0 ) ) ( and ( >= lam9n0 0 ) ( >= lam9n1 0 ) ( >= lam9n2 0 ) ( >= lam9n3 0 ) ( >= lam9n4 0 ) ( > ( + ( * UndefCntr2_CT lam9n1 ) ( * Nl3CT1 lam9n2 ) ( * Nl3CT2 lam9n3 ) ( * Nl3CT3 lam9n4 ) ( - 1 ( + Nl3CT1 ( * Nl3low6^01 1 ) ) ) ) 0 ) ( = ( + ( * 1 lam9n0 ) ( * UndefCntr2_low6^0 lam9n1 ) ( * Nl3low6^01 lam9n2 ) ( * Nl3low6^02 lam9n3 ) ( * Nl3low6^03 lam9n4 ) ) 0 ) ( = ( + ( * ( - 1 ) lam9n0 ) ( * UndefCntr2_up5^0 lam9n1 ) ( * Nl3up5^01 lam9n2 ) ( * Nl3up5^02 lam9n3 ) ( * Nl3up5^03 lam9n4 ) ( - ( + 0 Nl3up5^01 ) ) ) 0 ) ( = ( + ( * UndefCntr2_undef31 lam9n1 ) ( - ( + 0 ( * Nl3low6^01 1 ) ) ) ) 0 ) ) ))
(assert ( or ( and ( >= lam8n0 0 ) ( >= lam8n1 0 ) ( >= lam8n2 0 ) ( >= lam8n3 0 ) ( >= lam8n4 0 ) ( > ( + ( * UndefCntr2_CT lam8n1 ) ( * Nl3CT1 lam8n2 ) ( * Nl3CT2 lam8n3 ) ( * Nl3CT3 lam8n4 ) ( - 1 ) ) 0 ) ( = ( + ( * 1 lam8n0 ) ( * UndefCntr2_low6^0 lam8n1 ) ( * Nl3low6^01 lam8n2 ) ( * Nl3low6^02 lam8n3 ) ( * Nl3low6^03 lam8n4 ) ) 0 ) ( = ( + ( * ( - 1 ) lam8n0 ) ( * UndefCntr2_up5^0 lam8n1 ) ( * Nl3up5^01 lam8n2 ) ( * Nl3up5^02 lam8n3 ) ( * Nl3up5^03 lam8n4 ) ) 0 ) ( = ( * UndefCntr2_undef31 lam8n1 ) 0 ) ) ( and ( >= lam10n0 0 ) ( >= lam10n1 0 ) ( >= lam10n2 0 ) ( >= lam10n3 0 ) ( >= lam10n4 0 ) ( > ( + ( * UndefCntr2_CT lam10n1 ) ( * Nl3CT1 lam10n2 ) ( * Nl3CT2 lam10n3 ) ( * Nl3CT3 lam10n4 ) ( - 1 ( + Nl3CT2 ( * Nl3low6^02 1 ) ) ) ) 0 ) ( = ( + ( * 1 lam10n0 ) ( * UndefCntr2_low6^0 lam10n1 ) ( * Nl3low6^01 lam10n2 ) ( * Nl3low6^02 lam10n3 ) ( * Nl3low6^03 lam10n4 ) ) 0 ) ( = ( + ( * ( - 1 ) lam10n0 ) ( * UndefCntr2_up5^0 lam10n1 ) ( * Nl3up5^01 lam10n2 ) ( * Nl3up5^02 lam10n3 ) ( * Nl3up5^03 lam10n4 ) ( - ( + 0 Nl3up5^02 ) ) ) 0 ) ( = ( + ( * UndefCntr2_undef31 lam10n1 ) ( - ( + 0 ( * Nl3low6^02 1 ) ) ) ) 0 ) ) ))
(assert ( or ( and ( >= lam8n0 0 ) ( >= lam8n1 0 ) ( >= lam8n2 0 ) ( >= lam8n3 0 ) ( >= lam8n4 0 ) ( > ( + ( * UndefCntr2_CT lam8n1 ) ( * Nl3CT1 lam8n2 ) ( * Nl3CT2 lam8n3 ) ( * Nl3CT3 lam8n4 ) ( - 1 ) ) 0 ) ( = ( + ( * 1 lam8n0 ) ( * UndefCntr2_low6^0 lam8n1 ) ( * Nl3low6^01 lam8n2 ) ( * Nl3low6^02 lam8n3 ) ( * Nl3low6^03 lam8n4 ) ) 0 ) ( = ( + ( * ( - 1 ) lam8n0 ) ( * UndefCntr2_up5^0 lam8n1 ) ( * Nl3up5^01 lam8n2 ) ( * Nl3up5^02 lam8n3 ) ( * Nl3up5^03 lam8n4 ) ) 0 ) ( = ( * UndefCntr2_undef31 lam8n1 ) 0 ) ) ( and ( >= lam11n0 0 ) ( >= lam11n1 0 ) ( >= lam11n2 0 ) ( >= lam11n3 0 ) ( >= lam11n4 0 ) ( > ( + ( * UndefCntr2_CT lam11n1 ) ( * Nl3CT1 lam11n2 ) ( * Nl3CT2 lam11n3 ) ( * Nl3CT3 lam11n4 ) ( - 1 ( + Nl3CT3 ( * Nl3low6^03 1 ) ) ) ) 0 ) ( = ( + ( * 1 lam11n0 ) ( * UndefCntr2_low6^0 lam11n1 ) ( * Nl3low6^01 lam11n2 ) ( * Nl3low6^02 lam11n3 ) ( * Nl3low6^03 lam11n4 ) ) 0 ) ( = ( + ( * ( - 1 ) lam11n0 ) ( * UndefCntr2_up5^0 lam11n1 ) ( * Nl3up5^01 lam11n2 ) ( * Nl3up5^02 lam11n3 ) ( * Nl3up5^03 lam11n4 ) ( - ( + 0 Nl3up5^03 ) ) ) 0 ) ( = ( + ( * UndefCntr2_undef31 lam11n1 ) ( - ( + 0 ( * Nl3low6^03 1 ) ) ) ) 0 ) ) ))
(assert ( or ( and ( >= lam12n0 0 ) ( >= lam12n1 0 ) ( >= lam12n2 0 ) ( >= lam12n3 0 ) ( >= lam12n4 0 ) ( > ( + ( * UndefCntr3_CT lam12n1 ) ( * Nl3CT1 lam12n2 ) ( * Nl3CT2 lam12n3 ) ( * Nl3CT3 lam12n4 ) ( - 1 ) ) 0 ) ( = ( + ( * 1 lam12n0 ) ( * UndefCntr3_low6^0 lam12n1 ) ( * Nl3low6^01 lam12n2 ) ( * Nl3low6^02 lam12n3 ) ( * Nl3low6^03 lam12n4 ) ) 0 ) ( = ( + ( * ( - 1 ) lam12n0 ) ( * UndefCntr3_up5^0 lam12n1 ) ( * Nl3up5^01 lam12n2 ) ( * Nl3up5^02 lam12n3 ) ( * Nl3up5^03 lam12n4 ) ) 0 ) ( = ( * UndefCntr3_undef31 lam12n1 ) 0 ) ) ( and ( >= lam13n0 0 ) ( >= lam13n1 0 ) ( >= lam13n2 0 ) ( >= lam13n3 0 ) ( >= lam13n4 0 ) ( > ( + ( * UndefCntr3_CT lam13n1 ) ( * Nl3CT1 lam13n2 ) ( * Nl3CT2 lam13n3 ) ( * Nl3CT3 lam13n4 ) ( - 1 ( + Nl3CT1 ( * Nl3up5^01 ( - 1 ) ) ) ) ) 0 ) ( = ( + ( * 1 lam13n0 ) ( * UndefCntr3_low6^0 lam13n1 ) ( * Nl3low6^01 lam13n2 ) ( * Nl3low6^02 lam13n3 ) ( * Nl3low6^03 lam13n4 ) ( - ( + 0 Nl3low6^01 ) ) ) 0 ) ( = ( + ( * ( - 1 ) lam13n0 ) ( * UndefCntr3_up5^0 lam13n1 ) ( * Nl3up5^01 lam13n2 ) ( * Nl3up5^02 lam13n3 ) ( * Nl3up5^03 lam13n4 ) ) 0 ) ( = ( + ( * UndefCntr3_undef31 lam13n1 ) ( - ( + 0 ( * Nl3up5^01 1 ) ) ) ) 0 ) ) ))
(assert ( or ( and ( >= lam12n0 0 ) ( >= lam12n1 0 ) ( >= lam12n2 0 ) ( >= lam12n3 0 ) ( >= lam12n4 0 ) ( > ( + ( * UndefCntr3_CT lam12n1 ) ( * Nl3CT1 lam12n2 ) ( * Nl3CT2 lam12n3 ) ( * Nl3CT3 lam12n4 ) ( - 1 ) ) 0 ) ( = ( + ( * 1 lam12n0 ) ( * UndefCntr3_low6^0 lam12n1 ) ( * Nl3low6^01 lam12n2 ) ( * Nl3low6^02 lam12n3 ) ( * Nl3low6^03 lam12n4 ) ) 0 ) ( = ( + ( * ( - 1 ) lam12n0 ) ( * UndefCntr3_up5^0 lam12n1 ) ( * Nl3up5^01 lam12n2 ) ( * Nl3up5^02 lam12n3 ) ( * Nl3up5^03 lam12n4 ) ) 0 ) ( = ( * UndefCntr3_undef31 lam12n1 ) 0 ) ) ( and ( >= lam14n0 0 ) ( >= lam14n1 0 ) ( >= lam14n2 0 ) ( >= lam14n3 0 ) ( >= lam14n4 0 ) ( > ( + ( * UndefCntr3_CT lam14n1 ) ( * Nl3CT1 lam14n2 ) ( * Nl3CT2 lam14n3 ) ( * Nl3CT3 lam14n4 ) ( - 1 ( + Nl3CT2 ( * Nl3up5^02 ( - 1 ) ) ) ) ) 0 ) ( = ( + ( * 1 lam14n0 ) ( * UndefCntr3_low6^0 lam14n1 ) ( * Nl3low6^01 lam14n2 ) ( * Nl3low6^02 lam14n3 ) ( * Nl3low6^03 lam14n4 ) ( - ( + 0 Nl3low6^02 ) ) ) 0 ) ( = ( + ( * ( - 1 ) lam14n0 ) ( * UndefCntr3_up5^0 lam14n1 ) ( * Nl3up5^01 lam14n2 ) ( * Nl3up5^02 lam14n3 ) ( * Nl3up5^03 lam14n4 ) ) 0 ) ( = ( + ( * UndefCntr3_undef31 lam14n1 ) ( - ( + 0 ( * Nl3up5^02 1 ) ) ) ) 0 ) ) ))
(assert ( or ( and ( >= lam12n0 0 ) ( >= lam12n1 0 ) ( >= lam12n2 0 ) ( >= lam12n3 0 ) ( >= lam12n4 0 ) ( > ( + ( * UndefCntr3_CT lam12n1 ) ( * Nl3CT1 lam12n2 ) ( * Nl3CT2 lam12n3 ) ( * Nl3CT3 lam12n4 ) ( - 1 ) ) 0 ) ( = ( + ( * 1 lam12n0 ) ( * UndefCntr3_low6^0 lam12n1 ) ( * Nl3low6^01 lam12n2 ) ( * Nl3low6^02 lam12n3 ) ( * Nl3low6^03 lam12n4 ) ) 0 ) ( = ( + ( * ( - 1 ) lam12n0 ) ( * UndefCntr3_up5^0 lam12n1 ) ( * Nl3up5^01 lam12n2 ) ( * Nl3up5^02 lam12n3 ) ( * Nl3up5^03 lam12n4 ) ) 0 ) ( = ( * UndefCntr3_undef31 lam12n1 ) 0 ) ) ( and ( >= lam15n0 0 ) ( >= lam15n1 0 ) ( >= lam15n2 0 ) ( >= lam15n3 0 ) ( >= lam15n4 0 ) ( > ( + ( * UndefCntr3_CT lam15n1 ) ( * Nl3CT1 lam15n2 ) ( * Nl3CT2 lam15n3 ) ( * Nl3CT3 lam15n4 ) ( - 1 ( + Nl3CT3 ( * Nl3up5^03 ( - 1 ) ) ) ) ) 0 ) ( = ( + ( * 1 lam15n0 ) ( * UndefCntr3_low6^0 lam15n1 ) ( * Nl3low6^01 lam15n2 ) ( * Nl3low6^02 lam15n3 ) ( * Nl3low6^03 lam15n4 ) ( - ( + 0 Nl3low6^03 ) ) ) 0 ) ( = ( + ( * ( - 1 ) lam15n0 ) ( * UndefCntr3_up5^0 lam15n1 ) ( * Nl3up5^01 lam15n2 ) ( * Nl3up5^02 lam15n3 ) ( * Nl3up5^03 lam15n4 ) ) 0 ) ( = ( + ( * UndefCntr3_undef31 lam15n1 ) ( - ( + 0 ( * Nl3up5^03 1 ) ) ) ) 0 ) ) ))
(assert ( and ( <= ( + Nl3CT1 ( * Nl3low6^01 FV_low6^0_4 ) ( * Nl3up5^01 FV_up5^0_4 ) ) 0 ) ( <= ( + Nl3CT2 ( * Nl3low6^02 FV_low6^0_4 ) ( * Nl3up5^02 FV_up5^0_4 ) ) 0 ) ( <= ( + Nl3CT3 ( * Nl3low6^03 FV_low6^0_4 ) ( * Nl3up5^03 FV_up5^0_4 ) ) 0 ) ))
(assert ( or ( not ( = UndefCntr0_low6^0 0 ) ) ( not ( = UndefCntr0_up5^0 0 ) ) ( not ( = UndefCntr0_undef31 0 ) ) ( = UndefCntr0_CT 0 ) ))
(assert ( or ( and ( = UndefCntr0_low6^0 0 ) ( = UndefCntr0_up5^0 0 ) ) ( not ( = UndefCntr0_undef31 0 ) ) ))
(assert ( or ( not ( = UndefCntr1_low6^0 0 ) ) ( not ( = UndefCntr1_up5^0 0 ) ) ( not ( = UndefCntr1_undef31 0 ) ) ( = UndefCntr1_CT 0 ) ))
(assert ( or ( and ( = UndefCntr1_low6^0 0 ) ( = UndefCntr1_up5^0 0 ) ) ( not ( = UndefCntr1_undef31 0 ) ) ))
(assert ( or ( not ( = UndefCntr2_low6^0 0 ) ) ( not ( = UndefCntr2_up5^0 0 ) ) ( not ( = UndefCntr2_undef31 0 ) ) ( = UndefCntr2_CT 0 ) ))
(assert ( or ( and ( = UndefCntr2_low6^0 0 ) ( = UndefCntr2_up5^0 0 ) ) ( not ( = UndefCntr2_undef31 0 ) ) ))
(assert ( or ( not ( = UndefCntr3_low6^0 0 ) ) ( not ( = UndefCntr3_up5^0 0 ) ) ( not ( = UndefCntr3_undef31 0 ) ) ( = UndefCntr3_CT 0 ) ))
(assert ( or ( and ( = UndefCntr3_low6^0 0 ) ( = UndefCntr3_up5^0 0 ) ) ( not ( = UndefCntr3_undef31 0 ) ) ))
(assert ( and ( >= lam19n0 0 ) ( >= lam19n1 0 ) ( >= lam19n2 0 ) ( >= lam19n3 0 ) ( > ( + ( * 1 lam19n0 ) ( * Nl3CT1 lam19n1 ) ( * Nl3CT2 lam19n2 ) ( * Nl3CT3 lam19n3 ) ( - 1 ) ) 0 ) ( = ( + ( * ( - 1 ) lam19n0 ) ( * Nl3low6^01 lam19n1 ) ( * Nl3low6^02 lam19n2 ) ( * Nl3low6^03 lam19n3 ) ) 0 ) ( = ( + ( * 1 lam19n0 ) ( * Nl3up5^01 lam19n1 ) ( * Nl3up5^02 lam19n2 ) ( * Nl3up5^03 lam19n3 ) ) 0 ) ))
(assert ( and ( and ( <= ( + Nl3CT1 ( * Nl3low6^01 FV_low6^0_5 ) ( * Nl3up5^01 FV_up5^0_5 ) ) 0 ) ( <= ( + Nl3CT2 ( * Nl3low6^02 FV_low6^0_5 ) ( * Nl3up5^02 FV_up5^0_5 ) ) 0 ) ( <= ( + Nl3CT3 ( * Nl3low6^03 FV_low6^0_5 ) ( * Nl3up5^03 FV_up5^0_5 ) ) 0 ) ) ( or ( <= ( + FV_low6^0_5 ( * ( - 1 ) FV_up5^0_5 ) ) 0 ) ( <= ( + FV_low6^0_5 ( * ( - 1 ) FV_up5^0_5 ) ) 0 ) ( <= ( + FV_low6^0_5 ( * ( - 1 ) FV_up5^0_5 ) ) 0 ) ( <= ( + FV_low6^0_5 ( * ( - 1 ) FV_up5^0_5 ) ) 0 ) ) ))
(check-sat)
(exit)
